p tw 1520 22801 7 
1 8 
1 241 
2 9 
2 10 
2 242 
3 7 
3 10 
3 371 
4 8 
4 9 
4 372 
5 7 
5 9 
5 961 
6 8 
6 10 
6 962 
11 17 
11 18 
11 691 
12 19 
12 20 
12 692 
13 17 
13 20 
13 881 
14 18 
14 19 
14 882 
15 17 
15 19 
15 941 
16 18 
16 20 
16 942 
21 27 
21 28 
21 131 
22 29 
22 30 
22 132 
23 27 
23 30 
23 1181 
24 28 
24 29 
24 1182 
25 27 
25 29 
25 1381 
26 28 
26 30 
26 1382 
31 37 
31 38 
31 191 
32 39 
32 40 
32 192 
33 37 
33 40 
33 1051 
34 38 
34 39 
34 1052 
35 37 
35 39 
35 1351 
36 38 
36 40 
36 1352 
41 47 
41 48 
41 821 
42 49 
42 50 
42 822 
43 47 
43 50 
43 1121 
44 48 
44 49 
44 1122 
45 47 
45 49 
45 1271 
46 48 
46 50 
46 1272 
51 57 
51 58 
51 321 
52 59 
52 60 
52 322 
53 57 
53 60 
53 421 
54 58 
54 59 
54 422 
55 57 
55 59 
55 461 
56 58 
56 60 
56 462 
61 67 
61 68 
61 501 
62 69 
62 70 
62 502 
63 67 
63 70 
63 551 
64 68 
64 69 
64 552 
65 67 
65 69 
65 1061 
66 68 
66 70 
66 1062 
71 77 
71 78 
71 121 
72 79 
72 80 
72 122 
73 77 
73 80 
73 221 
74 78 
74 79 
74 222 
75 77 
75 79 
75 441 
76 78 
76 80 
76 442 
81 87 
81 88 
81 911 
82 89 
82 90 
82 912 
83 87 
83 90 
83 1031 
84 88 
84 89 
84 1032 
85 87 
85 89 
85 1241 
86 88 
86 90 
86 1242 
91 97 
91 98 
91 101 
92 99 
92 100 
92 102 
93 97 
93 100 
93 231 
94 98 
94 99 
94 232 
95 97 
95 99 
95 791 
96 98 
96 100 
96 792 
101 107 
101 108 
102 109 
102 110 
103 107 
103 110 
103 271 
104 108 
104 109 
104 272 
105 107 
105 109 
105 611 
106 108 
106 110 
106 612 
111 117 
111 118 
111 251 
112 119 
112 120 
112 252 
113 117 
113 120 
113 693 
114 118 
114 119 
114 694 
115 117 
115 119 
115 1063 
116 118 
116 120 
116 1064 
121 127 
121 128 
122 129 
122 130 
123 127 
123 130 
123 913 
124 128 
124 129 
124 914 
125 127 
125 129 
125 1383 
126 128 
126 130 
126 1384 
131 137 
131 138 
132 139 
132 140 
133 137 
133 140 
133 281 
134 138 
134 139 
134 282 
135 137 
135 139 
135 991 
136 138 
136 140 
136 992 
141 147 
141 148 
141 273 
142 149 
142 150 
142 274 
143 147 
143 150 
143 601 
144 148 
144 149 
144 602 
145 147 
145 149 
145 711 
146 148 
146 150 
146 712 
151 157 
151 158 
151 761 
152 159 
152 160 
152 762 
153 157 
153 160 
153 891 
154 158 
154 159 
154 892 
155 157 
155 159 
155 1291 
156 158 
156 160 
156 1292 
161 167 
161 168 
161 915 
162 169 
162 170 
162 916 
163 167 
163 170 
163 921 
164 168 
164 169 
164 922 
165 167 
165 169 
165 1101 
166 168 
166 170 
166 1102 
171 177 
171 178 
171 311 
172 179 
172 180 
172 312 
173 177 
173 180 
173 361 
174 178 
174 179 
174 362 
175 177 
175 179 
175 781 
176 178 
176 180 
176 782 
181 187 
181 188 
181 531 
182 189 
182 190 
182 532 
183 187 
183 190 
183 963 
184 188 
184 189 
184 964 
185 187 
185 189 
185 1251 
186 188 
186 190 
186 1252 
191 197 
191 198 
192 199 
192 200 
193 197 
193 200 
193 1021 
194 198 
194 199 
194 1022 
195 197 
195 199 
195 1091 
196 198 
196 200 
196 1092 
201 207 
201 208 
201 401 
202 209 
202 210 
202 402 
203 207 
203 210 
203 481 
204 208 
204 209 
204 482 
205 207 
205 209 
205 793 
206 208 
206 210 
206 794 
211 217 
211 218 
211 571 
212 219 
212 220 
212 572 
213 217 
213 220 
213 695 
214 218 
214 219 
214 696 
215 217 
215 219 
215 1421 
216 218 
216 220 
216 1422 
221 227 
221 228 
222 229 
222 230 
223 227 
223 230 
223 541 
224 228 
224 229 
224 542 
225 227 
225 229 
225 801 
226 228 
226 230 
226 802 
231 237 
231 238 
232 239 
232 240 
233 237 
233 240 
233 253 
234 238 
234 239 
234 254 
235 237 
235 239 
235 1461 
236 238 
236 240 
236 1462 
241 247 
241 248 
242 249 
242 250 
243 247 
243 250 
243 1211 
244 248 
244 249 
244 1212 
245 247 
245 249 
245 1361 
246 248 
246 250 
246 1362 
251 257 
251 258 
252 259 
252 260 
253 257 
253 260 
254 258 
254 259 
255 257 
255 259 
255 893 
256 258 
256 260 
256 894 
261 267 
261 268 
261 323 
262 269 
262 270 
262 324 
263 267 
263 270 
263 741 
264 268 
264 269 
264 742 
265 267 
265 269 
265 1321 
266 268 
266 270 
266 1322 
271 277 
271 278 
272 279 
272 280 
273 277 
273 280 
274 278 
274 279 
275 277 
275 279 
275 351 
276 278 
276 280 
276 352 
281 287 
281 288 
282 289 
282 290 
283 287 
283 290 
283 1331 
284 288 
284 289 
284 1332 
285 287 
285 289 
285 1491 
286 288 
286 290 
286 1492 
291 297 
291 298 
291 463 
292 299 
292 300 
292 464 
293 297 
293 300 
293 1293 
294 298 
294 299 
294 1294 
295 297 
295 299 
295 1481 
296 298 
296 300 
296 1482 
301 307 
301 308 
301 1041 
302 309 
302 310 
302 1042 
303 307 
303 310 
303 1191 
304 308 
304 309 
304 1192 
305 307 
305 309 
305 1311 
306 308 
306 310 
306 1312 
311 317 
311 318 
312 319 
312 320 
313 317 
313 320 
313 943 
314 318 
314 319 
314 944 
315 317 
315 319 
315 981 
316 318 
316 320 
316 982 
321 327 
321 328 
322 329 
322 330 
323 327 
323 330 
324 328 
324 329 
325 327 
325 329 
325 851 
326 328 
326 330 
326 852 
331 337 
331 338 
331 543 
332 339 
332 340 
332 544 
333 337 
333 340 
333 1011 
334 338 
334 339 
334 1012 
335 337 
335 339 
335 1221 
336 338 
336 340 
336 1222 
341 347 
341 348 
341 795 
342 349 
342 350 
342 796 
343 347 
343 350 
343 1333 
344 348 
344 349 
344 1334 
345 347 
345 349 
345 1471 
346 348 
346 350 
346 1472 
351 357 
351 358 
352 359 
352 360 
353 357 
353 360 
353 783 
354 358 
354 359 
354 784 
355 357 
355 359 
355 923 
356 358 
356 360 
356 924 
361 367 
361 368 
362 369 
362 370 
363 367 
363 370 
363 471 
364 368 
364 369 
364 472 
365 367 
365 369 
365 681 
366 368 
366 370 
366 682 
371 377 
371 378 
372 379 
372 380 
373 377 
373 380 
373 1171 
374 378 
374 379 
374 1172 
375 377 
375 379 
375 1451 
376 378 
376 380 
376 1452 
381 387 
381 388 
381 823 
382 389 
382 390 
382 824 
383 387 
383 390 
383 1081 
384 388 
384 389 
384 1082 
385 387 
385 389 
385 1243 
386 388 
386 390 
386 1244 
391 397 
391 398 
391 411 
392 399 
392 400 
392 412 
393 397 
393 400 
393 871 
394 398 
394 399 
394 872 
395 397 
395 399 
395 1183 
396 398 
396 400 
396 1184 
401 407 
401 408 
402 409 
402 410 
403 407 
403 410 
403 713 
404 408 
404 409 
404 714 
405 407 
405 409 
405 1323 
406 408 
406 410 
406 1324 
411 417 
411 418 
412 419 
412 420 
413 417 
413 420 
413 631 
414 418 
414 419 
414 632 
415 417 
415 419 
415 1083 
416 418 
416 420 
416 1084 
421 427 
421 428 
422 429 
422 430 
423 427 
423 430 
423 803 
424 428 
424 429 
424 804 
425 427 
425 429 
425 1231 
426 428 
426 430 
426 1232 
431 437 
431 438 
431 861 
432 439 
432 440 
432 862 
433 437 
433 440 
433 951 
434 438 
434 439 
434 952 
435 437 
435 439 
435 1001 
436 438 
436 440 
436 1002 
441 447 
441 448 
442 449 
442 450 
443 447 
443 450 
443 1053 
444 448 
444 449 
444 1054 
445 447 
445 449 
445 1353 
446 448 
446 450 
446 1354 
451 457 
451 458 
451 491 
452 459 
452 460 
452 492 
453 457 
453 460 
453 591 
454 458 
454 459 
454 592 
455 457 
455 459 
455 721 
456 458 
456 460 
456 722 
461 467 
461 468 
462 469 
462 470 
463 467 
463 470 
464 468 
464 469 
465 467 
465 469 
465 553 
466 468 
466 470 
466 554 
471 477 
471 478 
472 479 
472 480 
473 477 
473 480 
473 1065 
474 478 
474 479 
474 1066 
475 477 
475 479 
475 1371 
476 478 
476 480 
476 1372 
481 487 
481 488 
482 489 
482 490 
483 487 
483 490 
483 771 
484 488 
484 489 
484 772 
485 487 
485 489 
485 1281 
486 488 
486 490 
486 1282 
491 497 
491 498 
492 499 
492 500 
493 497 
493 500 
493 1033 
494 498 
494 499 
494 1034 
495 497 
495 499 
495 1423 
496 498 
496 500 
496 1424 
501 507 
501 508 
502 509 
502 510 
503 507 
503 510 
503 1391 
504 508 
504 509 
504 1392 
505 507 
505 509 
505 1511 
506 508 
506 510 
506 1512 
511 517 
511 518 
511 641 
512 519 
512 520 
512 642 
513 517 
513 520 
513 1111 
514 518 
514 519 
514 1112 
515 517 
515 519 
515 1193 
516 518 
516 520 
516 1194 
521 527 
521 528 
521 811 
522 529 
522 530 
522 812 
523 527 
523 530 
523 1013 
524 528 
524 529 
524 1014 
525 527 
525 529 
525 1411 
526 528 
526 530 
526 1412 
531 537 
531 538 
532 539 
532 540 
533 537 
533 540 
533 901 
534 538 
534 539 
534 902 
535 537 
535 539 
535 931 
536 538 
536 540 
536 932 
541 547 
541 548 
542 549 
542 550 
543 547 
543 550 
544 548 
544 549 
545 547 
545 549 
545 1413 
546 548 
546 550 
546 1414 
551 557 
551 558 
552 559 
552 560 
553 557 
553 560 
554 558 
554 559 
555 557 
555 559 
555 1043 
556 558 
556 560 
556 1044 
561 567 
561 568 
561 701 
562 569 
562 570 
562 702 
563 567 
563 570 
563 1141 
564 568 
564 569 
564 1142 
565 567 
565 569 
565 1453 
566 568 
566 570 
566 1454 
571 577 
571 578 
572 579 
572 580 
573 577 
573 580 
573 683 
574 578 
574 579 
574 684 
575 577 
575 579 
575 1431 
576 578 
576 580 
576 1432 
581 587 
581 588 
581 671 
582 589 
582 590 
582 672 
583 587 
583 590 
583 1201 
584 588 
584 589 
584 1202 
585 587 
585 589 
585 1253 
586 588 
586 590 
586 1254 
591 597 
591 598 
592 599 
592 600 
593 597 
593 600 
593 715 
594 598 
594 599 
594 716 
595 597 
595 599 
595 831 
596 598 
596 600 
596 832 
601 607 
601 608 
602 609 
602 610 
603 607 
603 610 
603 1015 
604 608 
604 609 
604 1016 
605 607 
605 609 
605 1103 
606 608 
606 610 
606 1104 
611 617 
611 618 
612 619 
612 620 
613 617 
613 620 
613 633 
614 618 
614 619 
614 634 
615 617 
615 619 
615 1325 
616 618 
616 620 
616 1326 
621 627 
621 628 
621 773 
622 629 
622 630 
622 774 
623 627 
623 630 
623 813 
624 628 
624 629 
624 814 
625 627 
625 629 
625 1341 
626 628 
626 630 
626 1342 
631 637 
631 638 
632 639 
632 640 
633 637 
633 640 
634 638 
634 639 
635 637 
635 639 
635 925 
636 638 
636 640 
636 926 
641 647 
641 648 
642 649 
642 650 
643 647 
643 650 
643 651 
644 648 
644 649 
644 652 
645 647 
645 649 
645 1283 
646 648 
646 650 
646 1284 
651 657 
651 658 
652 659 
652 660 
653 657 
653 660 
653 751 
654 658 
654 659 
654 752 
655 657 
655 659 
655 1373 
656 658 
656 660 
656 1374 
661 667 
661 668 
661 753 
662 669 
662 670 
662 754 
663 667 
663 670 
663 1161 
664 668 
664 669 
664 1162 
665 667 
665 669 
665 1233 
666 668 
666 670 
666 1234 
671 677 
671 678 
672 679 
672 680 
673 677 
673 680 
673 731 
674 678 
674 679 
674 732 
675 677 
675 679 
675 1463 
676 678 
676 680 
676 1464 
681 687 
681 688 
682 689 
682 690 
683 687 
683 690 
684 688 
684 689 
685 687 
685 689 
685 1301 
686 688 
686 690 
686 1302 
691 697 
691 698 
692 699 
692 700 
693 697 
693 700 
694 698 
694 699 
695 697 
695 699 
696 698 
696 700 
701 707 
701 708 
702 709 
702 710 
703 707 
703 710 
703 1213 
704 708 
704 709 
704 1214 
705 707 
705 709 
705 1501 
706 708 
706 710 
706 1502 
711 717 
711 718 
712 719 
712 720 
713 717 
713 720 
714 718 
714 719 
715 717 
715 719 
716 718 
716 720 
721 727 
721 728 
722 729 
722 730 
723 727 
723 730 
723 1261 
724 728 
724 729 
724 1262 
725 727 
725 729 
725 1441 
726 728 
726 730 
726 1442 
731 737 
731 738 
732 739 
732 740 
733 737 
733 740 
733 953 
734 738 
734 739 
734 954 
735 737 
735 739 
735 1343 
736 738 
736 740 
736 1344 
741 747 
741 748 
742 749 
742 750 
743 747 
743 750 
743 971 
744 748 
744 749 
744 972 
745 747 
745 749 
745 1455 
746 748 
746 750 
746 1456 
751 757 
751 758 
752 759 
752 760 
753 757 
753 760 
754 758 
754 759 
755 757 
755 759 
755 993 
756 758 
756 760 
756 994 
761 767 
761 768 
762 769 
762 770 
763 767 
763 770 
763 945 
764 768 
764 769 
764 946 
765 767 
765 769 
765 1273 
766 768 
766 770 
766 1274 
771 777 
771 778 
772 779 
772 780 
773 777 
773 780 
774 778 
774 779 
775 777 
775 779 
775 1071 
776 778 
776 780 
776 1072 
781 787 
781 788 
782 789 
782 790 
783 787 
783 790 
784 788 
784 789 
785 787 
785 789 
785 863 
786 788 
786 790 
786 864 
791 797 
791 798 
792 799 
792 800 
793 797 
793 800 
794 798 
794 799 
795 797 
795 799 
796 798 
796 800 
801 807 
801 808 
802 809 
802 810 
803 807 
803 810 
804 808 
804 809 
805 807 
805 809 
805 1263 
806 808 
806 810 
806 1264 
811 817 
811 818 
812 819 
812 820 
813 817 
813 820 
814 818 
814 819 
815 817 
815 819 
815 1375 
816 818 
816 820 
816 1376 
821 827 
821 828 
822 829 
822 830 
823 827 
823 830 
824 828 
824 829 
825 827 
825 829 
825 1073 
826 828 
826 830 
826 1074 
831 837 
831 838 
832 839 
832 840 
833 837 
833 840 
833 883 
834 838 
834 839 
834 884 
835 837 
835 839 
835 1415 
836 838 
836 840 
836 1416 
841 847 
841 848 
841 903 
842 849 
842 850 
842 904 
843 847 
843 850 
843 965 
844 848 
844 849 
844 966 
845 847 
845 849 
845 1075 
846 848 
846 850 
846 1076 
851 857 
851 858 
852 859 
852 860 
853 857 
853 860 
853 973 
854 858 
854 859 
854 974 
855 857 
855 859 
855 1503 
856 858 
856 860 
856 1504 
861 867 
861 868 
862 869 
862 870 
863 867 
863 870 
864 868 
864 869 
865 867 
865 869 
865 1363 
866 868 
866 870 
866 1364 
871 877 
871 878 
872 879 
872 880 
873 877 
873 880 
873 1425 
874 878 
874 879 
874 1426 
875 877 
875 879 
875 1483 
876 878 
876 880 
876 1484 
881 887 
881 888 
882 889 
882 890 
883 887 
883 890 
884 888 
884 889 
885 887 
885 889 
885 1513 
886 888 
886 890 
886 1514 
891 897 
891 898 
892 899 
892 900 
893 897 
893 900 
894 898 
894 899 
895 897 
895 899 
895 1473 
896 898 
896 900 
896 1474 
901 907 
901 908 
902 909 
902 910 
903 907 
903 910 
904 908 
904 909 
905 907 
905 909 
905 1055 
906 908 
906 910 
906 1056 
911 917 
911 918 
912 919 
912 920 
913 917 
913 920 
914 918 
914 919 
915 917 
915 919 
916 918 
916 920 
921 927 
921 928 
922 929 
922 930 
923 927 
923 930 
924 928 
924 929 
925 927 
925 929 
926 928 
926 930 
931 937 
931 938 
932 939 
932 940 
933 937 
933 940 
933 1163 
934 938 
934 939 
934 1164 
935 937 
935 939 
935 1475 
936 938 
936 940 
936 1476 
941 947 
941 948 
942 949 
942 950 
943 947 
943 950 
944 948 
944 949 
945 947 
945 949 
946 948 
946 950 
951 957 
951 958 
952 959 
952 960 
953 957 
953 960 
954 958 
954 959 
955 957 
955 959 
955 1093 
956 958 
956 960 
956 1094 
961 967 
961 968 
962 969 
962 970 
963 967 
963 970 
964 968 
964 969 
965 967 
965 969 
966 968 
966 970 
971 977 
971 978 
972 979 
972 980 
973 977 
973 980 
974 978 
974 979 
975 977 
975 979 
975 1303 
976 978 
976 980 
976 1304 
981 987 
981 988 
982 989 
982 990 
983 987 
983 990 
983 1123 
984 988 
984 989 
984 1124 
985 987 
985 989 
985 1143 
986 988 
986 990 
986 1144 
991 997 
991 998 
992 999 
992 1000 
993 997 
993 1000 
994 998 
994 999 
995 997 
995 999 
995 1151 
996 998 
996 1000 
996 1152 
1001 1007 
1001 1008 
1002 1009 
1002 1010 
1003 1007 
1003 1010 
1003 1313 
1004 1008 
1004 1009 
1004 1314 
1005 1007 
1005 1009 
1005 1433 
1006 1008 
1006 1010 
1006 1434 
1011 1017 
1011 1018 
1012 1019 
1012 1020 
1013 1017 
1013 1020 
1014 1018 
1014 1019 
1015 1017 
1015 1019 
1016 1018 
1016 1020 
1021 1027 
1021 1028 
1022 1029 
1022 1030 
1023 1027 
1023 1030 
1023 1393 
1024 1028 
1024 1029 
1024 1394 
1025 1027 
1025 1029 
1025 1493 
1026 1028 
1026 1030 
1026 1494 
1031 1037 
1031 1038 
1032 1039 
1032 1040 
1033 1037 
1033 1040 
1034 1038 
1034 1039 
1035 1037 
1035 1039 
1035 1275 
1036 1038 
1036 1040 
1036 1276 
1041 1047 
1041 1048 
1042 1049 
1042 1050 
1043 1047 
1043 1050 
1044 1048 
1044 1049 
1045 1047 
1045 1049 
1045 1285 
1046 1048 
1046 1050 
1046 1286 
1051 1057 
1051 1058 
1052 1059 
1052 1060 
1053 1057 
1053 1060 
1054 1058 
1054 1059 
1055 1057 
1055 1059 
1056 1058 
1056 1060 
1061 1067 
1061 1068 
1062 1069 
1062 1070 
1063 1067 
1063 1070 
1064 1068 
1064 1069 
1065 1067 
1065 1069 
1066 1068 
1066 1070 
1071 1077 
1071 1078 
1072 1079 
1072 1080 
1073 1077 
1073 1080 
1074 1078 
1074 1079 
1075 1077 
1075 1079 
1076 1078 
1076 1080 
1081 1087 
1081 1088 
1082 1089 
1082 1090 
1083 1087 
1083 1090 
1084 1088 
1084 1089 
1085 1087 
1085 1089 
1085 1165 
1086 1088 
1086 1090 
1086 1166 
1091 1097 
1091 1098 
1092 1099 
1092 1100 
1093 1097 
1093 1100 
1094 1098 
1094 1099 
1095 1097 
1095 1099 
1095 1245 
1096 1098 
1096 1100 
1096 1246 
1101 1107 
1101 1108 
1102 1109 
1102 1110 
1103 1107 
1103 1110 
1104 1108 
1104 1109 
1105 1107 
1105 1109 
1105 1153 
1106 1108 
1106 1110 
1106 1154 
1111 1117 
1111 1118 
1112 1119 
1112 1120 
1113 1117 
1113 1120 
1113 1131 
1114 1118 
1114 1119 
1114 1132 
1115 1117 
1115 1119 
1115 1401 
1116 1118 
1116 1120 
1116 1402 
1121 1127 
1121 1128 
1122 1129 
1122 1130 
1123 1127 
1123 1130 
1124 1128 
1124 1129 
1125 1127 
1125 1129 
1125 1223 
1126 1128 
1126 1130 
1126 1224 
1131 1137 
1131 1138 
1132 1139 
1132 1140 
1133 1137 
1133 1140 
1133 1265 
1134 1138 
1134 1139 
1134 1266 
1135 1137 
1135 1139 
1135 1395 
1136 1138 
1136 1140 
1136 1396 
1141 1147 
1141 1148 
1142 1149 
1142 1150 
1143 1147 
1143 1150 
1144 1148 
1144 1149 
1145 1147 
1145 1149 
1145 1203 
1146 1148 
1146 1150 
1146 1204 
1151 1157 
1151 1158 
1152 1159 
1152 1160 
1153 1157 
1153 1160 
1154 1158 
1154 1159 
1155 1157 
1155 1159 
1155 1225 
1156 1158 
1156 1160 
1156 1226 
1161 1167 
1161 1168 
1162 1169 
1162 1170 
1163 1167 
1163 1170 
1164 1168 
1164 1169 
1165 1167 
1165 1169 
1166 1168 
1166 1170 
1171 1177 
1171 1178 
1172 1179 
1172 1180 
1173 1177 
1173 1180 
1173 1255 
1174 1178 
1174 1179 
1174 1256 
1175 1177 
1175 1179 
1175 1465 
1176 1178 
1176 1180 
1176 1466 
1181 1187 
1181 1188 
1182 1189 
1182 1190 
1183 1187 
1183 1190 
1184 1188 
1184 1189 
1185 1187 
1185 1189 
1185 1515 
1186 1188 
1186 1190 
1186 1516 
1191 1197 
1191 1198 
1192 1199 
1192 1200 
1193 1197 
1193 1200 
1194 1198 
1194 1199 
1195 1197 
1195 1199 
1195 1305 
1196 1198 
1196 1200 
1196 1306 
1201 1207 
1201 1208 
1202 1209 
1202 1210 
1203 1207 
1203 1210 
1204 1208 
1204 1209 
1205 1207 
1205 1209 
1205 1215 
1206 1208 
1206 1210 
1206 1216 
1211 1217 
1211 1218 
1212 1219 
1212 1220 
1213 1217 
1213 1220 
1214 1218 
1214 1219 
1215 1217 
1215 1219 
1216 1218 
1216 1220 
1221 1227 
1221 1228 
1222 1229 
1222 1230 
1223 1227 
1223 1230 
1224 1228 
1224 1229 
1225 1227 
1225 1229 
1226 1228 
1226 1230 
1231 1237 
1231 1238 
1232 1239 
1232 1240 
1233 1237 
1233 1240 
1234 1238 
1234 1239 
1235 1237 
1235 1239 
1235 1495 
1236 1238 
1236 1240 
1236 1496 
1241 1247 
1241 1248 
1242 1249 
1242 1250 
1243 1247 
1243 1250 
1244 1248 
1244 1249 
1245 1247 
1245 1249 
1246 1248 
1246 1250 
1251 1257 
1251 1258 
1252 1259 
1252 1260 
1253 1257 
1253 1260 
1254 1258 
1254 1259 
1255 1257 
1255 1259 
1256 1258 
1256 1260 
1261 1267 
1261 1268 
1262 1269 
1262 1270 
1263 1267 
1263 1270 
1264 1268 
1264 1269 
1265 1267 
1265 1269 
1266 1268 
1266 1270 
1271 1277 
1271 1278 
1272 1279 
1272 1280 
1273 1277 
1273 1280 
1274 1278 
1274 1279 
1275 1277 
1275 1279 
1276 1278 
1276 1280 
1281 1287 
1281 1288 
1282 1289 
1282 1290 
1283 1287 
1283 1290 
1284 1288 
1284 1289 
1285 1287 
1285 1289 
1286 1288 
1286 1290 
1291 1297 
1291 1298 
1292 1299 
1292 1300 
1293 1297 
1293 1300 
1294 1298 
1294 1299 
1295 1297 
1295 1299 
1295 1335 
1296 1298 
1296 1300 
1296 1336 
1301 1307 
1301 1308 
1302 1309 
1302 1310 
1303 1307 
1303 1310 
1304 1308 
1304 1309 
1305 1307 
1305 1309 
1306 1308 
1306 1310 
1311 1317 
1311 1318 
1312 1319 
1312 1320 
1313 1317 
1313 1320 
1314 1318 
1314 1319 
1315 1317 
1315 1319 
1315 1355 
1316 1318 
1316 1320 
1316 1356 
1321 1327 
1321 1328 
1322 1329 
1322 1330 
1323 1327 
1323 1330 
1324 1328 
1324 1329 
1325 1327 
1325 1329 
1326 1328 
1326 1330 
1331 1337 
1331 1338 
1332 1339 
1332 1340 
1333 1337 
1333 1340 
1334 1338 
1334 1339 
1335 1337 
1335 1339 
1336 1338 
1336 1340 
1341 1347 
1341 1348 
1342 1349 
1342 1350 
1343 1347 
1343 1350 
1344 1348 
1344 1349 
1345 1347 
1345 1349 
1345 1443 
1346 1348 
1346 1350 
1346 1444 
1351 1357 
1351 1358 
1352 1359 
1352 1360 
1353 1357 
1353 1360 
1354 1358 
1354 1359 
1355 1357 
1355 1359 
1356 1358 
1356 1360 
1361 1367 
1361 1368 
1362 1369 
1362 1370 
1363 1367 
1363 1370 
1364 1368 
1364 1369 
1365 1367 
1365 1369 
1365 1403 
1366 1368 
1366 1370 
1366 1404 
1371 1377 
1371 1378 
1372 1379 
1372 1380 
1373 1377 
1373 1380 
1374 1378 
1374 1379 
1375 1377 
1375 1379 
1376 1378 
1376 1380 
1381 1387 
1381 1388 
1382 1389 
1382 1390 
1383 1387 
1383 1390 
1384 1388 
1384 1389 
1385 1387 
1385 1389 
1385 1445 
1386 1388 
1386 1390 
1386 1446 
1391 1397 
1391 1398 
1392 1399 
1392 1400 
1393 1397 
1393 1400 
1394 1398 
1394 1399 
1395 1397 
1395 1399 
1396 1398 
1396 1400 
1401 1407 
1401 1408 
1402 1409 
1402 1410 
1403 1407 
1403 1410 
1404 1408 
1404 1409 
1405 1407 
1405 1409 
1405 1435 
1406 1408 
1406 1410 
1406 1436 
1411 1417 
1411 1418 
1412 1419 
1412 1420 
1413 1417 
1413 1420 
1414 1418 
1414 1419 
1415 1417 
1415 1419 
1416 1418 
1416 1420 
1421 1427 
1421 1428 
1422 1429 
1422 1430 
1423 1427 
1423 1430 
1424 1428 
1424 1429 
1425 1427 
1425 1429 
1426 1428 
1426 1430 
1431 1437 
1431 1438 
1432 1439 
1432 1440 
1433 1437 
1433 1440 
1434 1438 
1434 1439 
1435 1437 
1435 1439 
1436 1438 
1436 1440 
1441 1447 
1441 1448 
1442 1449 
1442 1450 
1443 1447 
1443 1450 
1444 1448 
1444 1449 
1445 1447 
1445 1449 
1446 1448 
1446 1450 
1451 1457 
1451 1458 
1452 1459 
1452 1460 
1453 1457 
1453 1460 
1454 1458 
1454 1459 
1455 1457 
1455 1459 
1456 1458 
1456 1460 
1461 1467 
1461 1468 
1462 1469 
1462 1470 
1463 1467 
1463 1470 
1464 1468 
1464 1469 
1465 1467 
1465 1469 
1466 1468 
1466 1470 
1471 1477 
1471 1478 
1472 1479 
1472 1480 
1473 1477 
1473 1480 
1474 1478 
1474 1479 
1475 1477 
1475 1479 
1476 1478 
1476 1480 
1481 1487 
1481 1488 
1482 1489 
1482 1490 
1483 1487 
1483 1490 
1484 1488 
1484 1489 
1485 1487 
1485 1489 
1485 1505 
1486 1488 
1486 1490 
1486 1506 
1491 1497 
1491 1498 
1492 1499 
1492 1500 
1493 1497 
1493 1500 
1494 1498 
1494 1499 
1495 1497 
1495 1499 
1496 1498 
1496 1500 
1501 1507 
1501 1508 
1502 1509 
1502 1510 
1503 1507 
1503 1510 
1504 1508 
1504 1509 
1505 1507 
1505 1509 
1506 1508 
1506 1510 
1511 1517 
1511 1518 
1512 1519 
1512 1520 
1513 1517 
1513 1520 
1514 1518 
1514 1519 
1515 1517 
1515 1519 
1516 1518 
1516 1520 
